c User generated cnf file
p cnf 15 50
-2 5 2 0 
6 -4 6 0 
15 4 -12 0 
-12 5 2 0 
12 14 -8 0 
15 9 -4 0 
-14 4 1 0 
-9 14 8 0 
10 10 -1 0 
7 7 -3 0 
-2 4 10 0 
-8 2 5 0 
7 10 -9 0 
-8 2 11 0 
9 12 -9 0 
12 10 -11 0 
14 14 -11 0 
9 5 -10 0 
-5 9 8 0 
7 11 -11 0 
-13 14 4 0 
-5 5 3 0 
-1 12 2 0 
-13 14 13 0 
-14 5 11 0 
7 6 -9 0 
15 -10 13 0 
-12 2 13 0 
10 -1 5 0 
-3 3 9 0 
-5 2 11 0 
3 7 -15 0 
5 -10 8 0 
1 3 -11 0 
4 -11 13 0 
-4 2 12 0 
3 6 -9 0 
8 15 -4 0 
-7 9 6 0 
1 8 -12 0 
5 -3 15 0 
-10 1 7 0 
-12 9 6 0 
15 8 -12 0 
2 12 -2 0 
-9 13 5 0 
3 -4 3 0 
11 -8 9 0 
5 -15 4 0 
11 -3 10 0 
